(set-logic QF_LIA)
(set-info :ran/ran2.smt2)
(set-info :smt-lib-version 2.0)
(declare-fun x1 () Int)
(declare-fun x2 () Int)
(declare-fun x3 () Int)
(declare-fun x4 () Int)
(assert (<= (+ (* (- 1) x1) (* (- 1) x2) (* 7 x3) (* (- 3) x4) ) 67))
(assert (<= (+ (* (- 6) x1) (* 5 x2) (* 5 x3) (* (- 6) x4) ) 125))
(assert (<= (+ (* 7 x1) (* 3 x2) (* 4 x3) (* 2 x4) ) 113))
(assert (<= (+ (* (- 3) x1) (* 2 x2) (* 6 x3) (* (- 2) x4) ) (- 86)))
(assert (<= (+ (* (- 10) x1) (* 8 x2) (* (- 5) x3) (* 8 x4) ) (- 74)))
(assert (<= (+ (* (- 10) x1) (* 2 x2) (* (- 1) x3) (* (- 2) x4) ) (- 124)))
(assert (<= (+ (* (- 3) x1) (* 5 x2) (* (- 3) x3) (* (- 9) x4) ) (- 84)))
(assert (<= (+ (* 4 x1) (* (- 4) x2) (* 5 x3) (* (- 3) x4) ) (- 104)))
(assert (<= (+ (* 1 x1) (* 0 x2) (* 0 x3) (* 0 x4) ) 125))
(assert (<= (+ (* (- 1) x1) (* 0 x2) (* 0 x3) (* 0 x4) ) 125))
(assert (<= (+ (* 0 x1) (* 1 x2) (* 0 x3) (* 0 x4) ) 125))
(assert (<= (+ (* 0 x1) (* (- 1) x2) (* 0 x3) (* 0 x4) ) 125))
(assert (<= (+ (* 0 x1) (* 0 x2) (* 1 x3) (* 0 x4) ) 125))
(assert (<= (+ (* 0 x1) (* 0 x2) (* (- 1) x3) (* 0 x4) ) 125))
(assert (<= (+ (* 0 x1) (* 0 x2) (* 0 x3) (* 1 x4) ) 125))
(assert (<= (+ (* 0 x1) (* 0 x2) (* 0 x3) (* (- 1) x4) ) 125))
